results_rootrelaxation/bin012_070_036.srr.sol
solution status: optimal solution found
objective value:                     9.45373134328358
_var686_                            0.119402985074628 	(obj:0)
_var687_                            0.128358208955225 	(obj:1)
_var695_                            0.567164179104476 	(obj:0)
_var704_                            0.161194029850747 	(obj:1)
_var715_                           0.0179104477611933 	(obj:1)
_var721_                           0.0925373134328353 	(obj:1)
_var738_                             0.35820895522388 	(obj:1)
_var742_                             0.28955223880597 	(obj:1)
_var744_                           0.0895522388059714 	(obj:1)
_var763_                            0.026865671641792 	(obj:1)
_var773_                            0.152238805970149 	(obj:1)
_var777_                           0.0477611940298507 	(obj:1)
_var784_                            0.167164179104478 	(obj:1)
_var787_                           0.0835820895522381 	(obj:2)
_var789_                            0.122388059701491 	(obj:0)
_var801_                            0.128358208955225 	(obj:0)
_var807_                            0.307462686567164 	(obj:1)
_var810_                            0.104477611940298 	(obj:0)
_var812_                            0.388059701492537 	(obj:0)
_var815_                           0.0447761194029836 	(obj:0)
_var817_                           0.0477611940298506 	(obj:1)
_var820_                            0.176119402985074 	(obj:1)
_var821_                            0.498507462686566 	(obj:2)
_var822_                            0.229850746268657 	(obj:1)
_var824_                            0.402985074626867 	(obj:1)
_var827_                           0.0388059701492542 	(obj:1)
_var830_                            0.170149253731343 	(obj:0)
_var837_                            0.253731343283583 	(obj:0)
_var840_                            0.489552238805969 	(obj:1)
_var842_                            0.564179104477613 	(obj:1)
_var843_                            0.259701492537313 	(obj:1)
_var857_                          0.00895522388059705 	(obj:2)
_var863_                           0.0179104477611927 	(obj:2)
_var864_                           0.0835820895522399 	(obj:2)
_var868_                            0.453731343283584 	(obj:2)
_var869_                           0.0537313432835813 	(obj:1)
_var870_                            0.343283582089554 	(obj:1)
_var873_                           0.0567164179104474 	(obj:1)
_var876_                            0.176119402985075 	(obj:0)
_var877_                            0.426865671641792 	(obj:0)
_var878_                            0.134328358208954 	(obj:1)
_var887_                            0.471641791044777 	(obj:1)
_var888_                          0.00895522388059644 	(obj:1)
_var899_                            0.373134328358209 	(obj:1)
_var902_                           0.0477611940298506 	(obj:1)
_var905_                           0.0805970149253742 	(obj:1)
_var906_                            0.259701492537313 	(obj:2)
_var907_                            0.137313432835822 	(obj:1)
_var910_                            0.304477611940299 	(obj:0)
_var916_                            0.358208955223882 	(obj:1)
_var917_                           0.0179104477611942 	(obj:1)
_var918_                            0.316417910447762 	(obj:1)
_var919_                            0.167164179104478 	(obj:0)
_var920_                           0.0776119402985075 	(obj:2)
_var922_                           0.0716417910447755 	(obj:0)
_var925_                          0.00895522388059647 	(obj:1)
_var926_                           0.0149253731343282 	(obj:2)
