results_rootrelaxation/bin012_070_036.srr.log
SCIP version 8.0.3.5 [precision: 8 byte] [memory: block] [mode: optimized] [LP solver: Soplex 6.0.1.3] [GitHash: 438792519e]
Copyright (c) 2002-2023 Zuse Institute Berlin (ZIB)

External libraries: 
  Readline 8.1         GNU library for command line editing (gnu.org/s/readline)
  Soplex 6.0.1.3       Linear Programming Solver developed at Zuse Institute Berlin (soplex.zib.de) [GitHash: 713be0fe]
  CppAD 20180000.0     Algorithmic Differentiation of C++ algorithms developed by B. Bell (github.com/coin-or/CppAD)
  ZLIB 1.2.11          General purpose compression library by J. Gailly and M. Adler (zlib.net)
  bliss 0.77           Computing Graph Automorphism Groups by T. Junttila and P. Kaski (www.tcs.hut.fi/Software/bliss/)

user parameter file <scip.set> not found - using default parameters

srr/relaxation = TRUE

read problem <instances/bin012_070_036.srr>
============

Original problem: 
original problem has 0 variables (0 bin, 0 int, 0 impl, 0 cont) and 77 constraints

presolving:
presolving (1 rounds: 1 fast, 1 medium, 1 exhaustive):
 0 deleted vars, 0 deleted constraints, 0 added constraints, 0 tightened bounds, 0 added holes, 0 changed sides, 0 changed coefficients
 0 implications, 0 cliques
presolved problem has 0 variables (0 bin, 0 int, 0 impl, 0 cont) and 77 constraints
     77 constraints of type <linear>
Presolving Time: 0.00

 time | node  | left  |LP iter|LP it/n|mem/heur|mdpt |vars |cons |rows |cuts |sepa|confs|strbr|  dualbound   | primalbound  |  gap   | compl. 
  0.0s|     1 |     0 |     1 |     - |   710k |   0 |   1 |  77 |  77 |   0 |  0 |   0 |   0 |      --      |      --      |    Inf | unknown
r 0.0s|     1 |     0 |   828 |     - |simplero|   0 | 686 |  77 |  77 |   0 |  0 |   0 |   0 |      --      | 2.727099e+01 |    Inf | unknown
r 0.0s|     1 |     0 |   893 |     - |simplero|   0 | 697 |  77 |  77 |   0 |  0 |   0 |   0 |      --      | 2.444033e+01 |    Inf | unknown
r 0.0s|     1 |     0 |   960 |     - |simplero|   0 | 708 |  77 |  77 |   0 |  0 |   0 |   0 |      --      | 2.234526e+01 |    Inf | unknown
r 0.1s|     1 |     0 |  1006 |     - |simplero|   0 | 719 |  77 |  77 |   0 |  0 |   0 |   0 |      --      | 2.068778e+01 |    Inf | unknown
r 0.1s|     1 |     0 |  1059 |     - |simplero|   0 | 730 |  77 |  77 |   0 |  0 |   0 |   0 |      --      | 1.894610e+01 |    Inf | unknown
r 0.1s|     1 |     0 |  1102 |     - |simplero|   0 | 741 |  77 |  77 |   0 |  0 |   0 |   0 |      --      | 1.803581e+01 |    Inf | unknown
r 0.1s|     1 |     0 |  1122 |     - |simplero|   0 | 741 |  77 |  77 |   0 |  0 |   0 |   0 |      --      | 1.751619e+01 |    Inf | unknown
r 0.1s|     1 |     0 |  1168 |     - |simplero|   0 | 752 |  77 |  77 |   0 |  0 |   0 |   0 |      --      | 1.604308e+01 |    Inf | unknown
r 0.1s|     1 |     0 |  1182 |     - |simplero|   0 | 752 |  77 |  77 |   0 |  0 |   0 |   0 |      --      | 1.584145e+01 |    Inf | unknown
r 0.1s|     1 |     0 |  1183 |     - |simplero|   0 | 752 |  77 |  77 |   0 |  0 |   0 |   0 |      --      | 1.583807e+01 |    Inf | unknown
r 0.1s|     1 |     0 |  1240 |     - |simplero|   0 | 763 |  77 |  77 |   0 |  0 |   0 |   0 |      --      | 1.478678e+01 |    Inf | unknown
r 0.1s|     1 |     0 |  1246 |     - |simplero|   0 | 763 |  77 |  77 |   0 |  0 |   0 |   0 |      --      | 1.476962e+01 |    Inf | unknown
r 0.1s|     1 |     0 |  1253 |     - |simplero|   0 | 763 |  77 |  77 |   0 |  0 |   0 |   0 |      --      | 1.475706e+01 |    Inf | unknown
r 0.1s|     1 |     0 |  1288 |     - |simplero|   0 | 774 |  77 |  77 |   0 |  0 |   0 |   0 |      --      | 1.375630e+01 |    Inf | unknown
 time | node  | left  |LP iter|LP it/n|mem/heur|mdpt |vars |cons |rows |cuts |sepa|confs|strbr|  dualbound   | primalbound  |  gap   | compl. 
r 0.1s|     1 |     0 |  1292 |     - |simplero|   0 | 774 |  77 |  77 |   0 |  0 |   0 |   0 |      --      | 1.374758e+01 |    Inf | unknown
r 0.1s|     1 |     0 |  1314 |     - |simplero|   0 | 785 |  77 |  77 |   0 |  0 |   0 |   0 |      --      | 1.331478e+01 |    Inf | unknown
r 0.1s|     1 |     0 |  1322 |     - |simplero|   0 | 785 |  77 |  77 |   0 |  0 |   0 |   0 |      --      | 1.330385e+01 |    Inf | unknown
r 0.1s|     1 |     0 |  1346 |     - |simplero|   0 | 796 |  77 |  77 |   0 |  0 |   0 |   0 |      --      | 1.286339e+01 |    Inf | unknown
r 0.1s|     1 |     0 |  1357 |     - |simplero|   0 | 796 |  77 |  77 |   0 |  0 |   0 |   0 |      --      | 1.271454e+01 |    Inf | unknown
r 0.1s|     1 |     0 |  1388 |     - |simplero|   0 | 807 |  77 |  77 |   0 |  0 |   0 |   0 |      --      | 1.239751e+01 |    Inf | unknown
r 0.1s|     1 |     0 |  1402 |     - |simplero|   0 | 807 |  77 |  77 |   0 |  0 |   0 |   0 |      --      | 1.228593e+01 |    Inf | unknown
r 0.1s|     1 |     0 |  1442 |     - |simplero|   0 | 818 |  77 |  77 |   0 |  0 |   0 |   0 |      --      | 1.153012e+01 |    Inf | unknown
r 0.1s|     1 |     0 |  1444 |     - |simplero|   0 | 818 |  77 |  77 |   0 |  0 |   0 |   0 |      --      | 1.153005e+01 |    Inf | unknown
r 0.1s|     1 |     0 |  1471 |     - |simplero|   0 | 829 |  77 |  77 |   0 |  0 |   0 |   0 |      --      | 1.091487e+01 |    Inf | unknown
r 0.1s|     1 |     0 |  1487 |     - |simplero|   0 | 829 |  77 |  77 |   0 |  0 |   0 |   0 |      --      | 1.078840e+01 |    Inf | unknown
r 0.1s|     1 |     0 |  1499 |     - |simplero|   0 | 829 |  77 |  77 |   0 |  0 |   0 |   0 |      --      | 1.075289e+01 |    Inf | unknown
r 0.1s|     1 |     0 |  1545 |     - |simplero|   0 | 840 |  77 |  77 |   0 |  0 |   0 |   0 |      --      | 1.041300e+01 |    Inf | unknown
r 0.1s|     1 |     0 |  1550 |     - |simplero|   0 | 840 |  77 |  77 |   0 |  0 |   0 |   0 |      --      | 1.040705e+01 |    Inf | unknown
r 0.1s|     1 |     0 |  1578 |     - |simplero|   0 | 851 |  77 |  77 |   0 |  0 |   0 |   0 |      --      | 1.017835e+01 |    Inf | unknown
 time | node  | left  |LP iter|LP it/n|mem/heur|mdpt |vars |cons |rows |cuts |sepa|confs|strbr|  dualbound   | primalbound  |  gap   | compl. 
r 0.1s|     1 |     0 |  1583 |     - |simplero|   0 | 851 |  77 |  77 |   0 |  0 |   0 |   0 |      --      | 1.017369e+01 |    Inf | unknown
r 0.1s|     1 |     0 |  1601 |     - |simplero|   0 | 862 |  77 |  77 |   0 |  0 |   0 |   0 |      --      | 1.000000e+01 |    Inf | unknown
  0.1s|     1 |     0 |  1606 |     - |  4231k |   0 | 862 |  77 |  77 |   0 |  0 |   0 |   0 |      --      | 1.000000e+01 |    Inf | unknown
r 0.1s|     1 |     0 |  1645 |     - |simplero|   0 | 873 |  77 |  77 |   0 |  0 |   0 |   0 |      --      | 9.879032e+00 |    Inf | unknown
r 0.1s|     1 |     0 |  1646 |     - |simplero|   0 | 873 |  77 |  77 |   0 |  0 |   0 |   0 |      --      | 9.878505e+00 |    Inf | unknown
r 0.1s|     1 |     0 |  1672 |     - |simplero|   0 | 883 |  77 |  77 |   0 |  0 |   0 |   0 |      --      | 9.756198e+00 |    Inf | unknown
r 0.1s|     1 |     0 |  1680 |     - |simplero|   0 | 883 |  77 |  77 |   0 |  0 |   0 |   0 |      --      | 9.743295e+00 |    Inf | unknown
r 0.1s|     1 |     0 |  1702 |     - |simplero|   0 | 892 |  77 |  77 |   0 |  0 |   0 |   0 |      --      | 9.691235e+00 |    Inf | unknown
r 0.1s|     1 |     0 |  1707 |     - |simplero|   0 | 892 |  77 |  77 |   0 |  0 |   0 |   0 |      --      | 9.684764e+00 |    Inf | unknown
r 0.1s|     1 |     0 |  1726 |     - |simplero|   0 | 900 |  77 |  77 |   0 |  0 |   0 |   0 |      --      | 9.594595e+00 |    Inf | unknown
r 0.1s|     1 |     0 |  1739 |     - |simplero|   0 | 907 |  77 |  77 |   0 |  0 |   0 |   0 |      --      | 9.560418e+00 |    Inf | unknown
r 0.1s|     1 |     0 |  1754 |     - |simplero|   0 | 912 |  77 |  77 |   0 |  0 |   0 |   0 |      --      | 9.531409e+00 |    Inf | unknown
r 0.1s|     1 |     0 |  1756 |     - |simplero|   0 | 912 |  77 |  77 |   0 |  0 |   0 |   0 |      --      | 9.530917e+00 |    Inf | unknown
r 0.1s|     1 |     0 |  1766 |     - |simplero|   0 | 917 |  77 |  77 |   0 |  0 |   0 |   0 |      --      | 9.526437e+00 |    Inf | unknown
r 0.1s|     1 |     0 |  1771 |     - |simplero|   0 | 917 |  77 |  77 |   0 |  0 |   0 |   0 |      --      | 9.526130e+00 |    Inf | unknown
 time | node  | left  |LP iter|LP it/n|mem/heur|mdpt |vars |cons |rows |cuts |sepa|confs|strbr|  dualbound   | primalbound  |  gap   | compl. 
r 0.1s|     1 |     0 |  1778 |     - |simplero|   0 | 919 |  77 |  77 |   0 |  0 |   0 |   0 |      --      | 9.484848e+00 |    Inf | unknown
r 0.1s|     1 |     0 |  1785 |     - |simplero|   0 | 919 |  77 |  77 |   0 |  0 |   0 |   0 |      --      | 9.478908e+00 |    Inf | unknown
r 0.1s|     1 |     0 |  1799 |     - |simplero|   0 | 922 |  77 |  77 |   0 |  0 |   0 |   0 |      --      | 9.460094e+00 |    Inf | unknown
r 0.1s|     1 |     0 |  1803 |     - |simplero|   0 | 924 |  77 |  77 |   0 |  0 |   0 |   0 |      --      | 9.454545e+00 |    Inf | unknown
r 0.1s|     1 |     0 |  1810 |     - |simplero|   0 | 926 |  77 |  77 |   0 |  0 |   0 |   0 |      --      | 9.453846e+00 |    Inf | unknown
r 0.1s|     1 |     0 |  1814 |     - |simplero|   0 | 927 |  77 |  77 |   0 |  0 |   0 |   0 |      --      | 9.453731e+00 |    Inf | unknown
  0.1s|     1 |     0 |  1814 |     - |  4433k |   0 | 927 |  77 |  77 |   0 |  0 |   0 |   0 | 9.453731e+00 | 9.453731e+00 |   0.00%| unknown
  0.1s|     1 |     0 |  1814 |     - |  4433k |   0 | 927 |  77 |  77 |   0 |  0 |   0 |   0 | 9.453731e+00 | 9.453731e+00 |   0.00%| unknown

SCIP Status        : problem is solved [optimal solution found]
Solving Time (sec) : 0.10
Solving Nodes      : 1
Primal Bound       : +9.45373134328358e+00 (49 solutions)
Dual Bound         : +9.45373134328358e+00
Gap                : 0.00 %

written transformed problem to file <results_rootrelaxation/bin012_070_036.srr.lp>
written transformed problem to file <results_rootrelaxation/bin012_070_036.srr.cip>

written solution information to file <results_rootrelaxation/bin012_070_036.srr.sol>



